430
513
756
610
158
636
666
67
563
316
1113
1292
2149
4517
4659
5276
2361
7069
530
7888
7916
7347
2744
6158
7713
7312
4390
5054
15981
13450
17108
8930
1508
14389
18943
17057
1786
21899
11274
15409
19015
19785
5987
21039
30123
28685
23331
12900
8645
22273
22807
23078
38178
36117
43900
42875
47470
48042
48690
20370
59446
57711
49101
25968
20793
60784
44106
59145
39197
68788
65364
13680
65595
31169
6406
58770
74523
24331
24284
47198
27529
89751
100512
81494
108581
19663
45269
82373
40648
100432
42338
80341
120521
32402
132491
132548
129620
150543
89638
108797
